20J6M/DAT/20J6MUNL-5.dat
20 6
25.319 25.319
9.0529 9.0529
3.2677 3.2677
4.6719 4.6719
2.9146 2.9146
20.0361 20.0361
19.8085 19.8085
19.2238 19.2238
46.6186 46.6186
43.4347 43.4347
0.7988 0.7988
18.7636 18.7636
4.711 4.711
40.7013 40.7013
19.5289 19.5289
10.0513 10.0513
29.3071 29.3071
15.9475 15.9475
13.4518 13.4518
44.9638 44.9638
392.5729