20J6M/SOL/20J6MUNL-5.sol
solution status: optimal solution found
objective value:                     65.4288166666667
x#1#4                                0.26728807088221 	(obj:0)
x#1#5                               0.627813763050147 	(obj:0)
x#1#6                               0.104898166067644 	(obj:0)
x#2#2                                               1 	(obj:0)
x#3#6                                               1 	(obj:0)
x#4#1                                               1 	(obj:0)
x#5#5                                               1 	(obj:0)
x#6#4                                               1 	(obj:0)
x#7#2                                               1 	(obj:0)
x#8#1                                               1 	(obj:0)
x#9#5                                               1 	(obj:0)
x#10#3                                              1 	(obj:0)
x#11#6                                              1 	(obj:0)
x#12#2                                              1 	(obj:0)
x#13#3                                              1 	(obj:0)
x#14#1                              0.293674075930417 	(obj:0)
x#14#2                              0.437426241094674 	(obj:0)
x#14#3                               0.26889968297491 	(obj:0)
x#15#1                                              1 	(obj:0)
x#16#1                                              1 	(obj:0)
x#17#6                                              1 	(obj:0)
x#18#6                                              1 	(obj:0)
x#19#6                                              1 	(obj:0)
x#20#3                              0.140970069255712 	(obj:0)
x#20#4                              0.859029930744288 	(obj:0)
z                                    65.4288166666667 	(obj:1)
